Bateria de Pruebas/DZN/extremismo2.dzn
n = 15;
m = 5;
p = [4, 6, 1, 1, 3];
ext = [0.768, 0.432, 0.162, 0.032, 0.392];
ce = [5.789, 8.493, 6.872, 11.43, 4.931];
c = array2d(1..5, 1..5, [0.0, 4.619, 3.463, 5.278, 3.749, 1.383, 0.0, 4.144, 4.839, 2.951, 2.345, 1.729, 0.0, 4.965, 1.111, 1.535, 2.082, 1.941, 0.0, 1.919, 4.327, 2.754, 3.565, 2.737, 0.0]);
ct = 128.62;
maxM = 20;
