Bateria de Pruebas/extremismo2.txt
15
5
4,6,1,1,3
0.768,0.432,0.162,0.032,0.392
5.789,8.493,6.872,11.430,4.931
0,4.619,3.463,5.278,3.749
1.383,0,4.144,4.839,2.951
2.345,1.729,0,4.965,1.111
1.535,2.082,1.941,0,1.919
4.327,2.754,3.565,2.737,0
128.62
20
